%
% Generated Sudoku 25x25
% Density approximation: 0.40
%
x = array2d(1..n, 1..n, [
   2,   _,   _,  25,   _,   _,  24,   _,   _,   _,   _,   _,  23,   _,   _,   _,   _,   _,   9,   _,   4,   _,   _,   _,   _,
   _,   _,   _,   1,   _,   _,  22,  13,   _,   _,   9,   _,   3,   _,   _,   _,   _,   _,   _,   _,  11,   _,   _,   _,  16,
  21,   _,   _,   _,   9,   _,   5,  17,  20,   _,   _,   _,   _,  14,   4,   _,   8,   _,   _,   _,  25,   _,   _,   _,   _,
   _,   _,   _,  23,   _,  18,   _,   _,   6,  10,   _,  16,  22,   _,   _,   3,   _,  25,   _,  20,   _,  17,  19,   _,   _,
   _,   3,  22,  15,  19,  25,   _,   _,   9,  23,   _,  24,   _,   5,   _,   _,   _,   _,   _,   _,   7,   _,  12,   _,   _,
   _,   _,   1,   _,  15,   _,   7,   8,   _,   _,  25,   _,  10,  11,   _,  23,   4,  18,   6,   _,  21,   _,   _,   _,  14,
  25,   _,   _,   _,  23,  19,   3,   _,  14,   _,   _,  22,   _,   4,   _,  24,   _,  15,   _,   2,   _,  10,   _,   _,   _,
  16,   _,  20,   _,  14,   _,   _,  10,   5,   _,   2,   _,  17,   _,   _,   _,  21,   8,  25,   _,   _,  23,   _,   _,  19,
  22,   _,   _,   4,   _,   _,   2,  23,   _,   _,   _,  19,  15,   _,  24,   _,   _,   _,  14,  12,  13,   _,   _,   _,   _,
   _,  11,   2,  21,  24,   _,  12,  22,   _,   _,   _,   _,   _,   1,  20,  13,  10,   _,   _,  16,  15,   9,  25,   _,   7,
   _,   _,   _,  12,   _,  10,   _,   _,   2,  16,  22,  13,   5,   _,  19,   _,   3,   _,   _,   _,   1,   _,  17,   _,   _,
   _,   _,   _,   _,  21,  13,  19,   6,  22,   _,   _,   _,  14,   _,   _,   7,   _,  23,   _,   1,   9,  16,  10,  11,  25,
   _,  23,  13,  16,   _,   _,   1,  18,   _,  25,  20,  21,   7,  24,   6,   _,   _,   4,  17,   _,   _,   2,   _,  12,   _,
   6,   9,   _,   _,   _,   _,  20,   _,  21,   _,   _,   _,   _,   _,   _,   _,   _,  11,   _,  19,   3,   _,   _,   _,   _,
   8,   _,   _,   _,   _,   _,   _,   3,  24,   _,   _,  10,   _,   _,   _,   9,   _,   _,   _,   _,  19,   4,   _,  21,   _,
   9,   _,   _,  17,  25,  22,   _,   _,   _,   _,   _,  23,  13,   _,   _,   _,   _,   _,   _,   _,   5,  24,   _,  19,   _,
  15,   _,   _,   _,   _,   _,   _,   _,  19,   9,   _,   _,   _,   _,   _,   _,   _,   _,   4,  23,   _,   3,   _,  22,   _,
   _,   _,   _,   _,   _,   _,   8,   4,  23,  21,   _,   _,  24,   _,  15,   _,   _,   9,   _,   _,   _,   _,   _,   _,   _,
  23,   _,   _,   8,  13,   6,   _,   5,   _,   2,   _,   4,   _,  16,   7,   _,  15,   _,   _,   _,  20,   _,  18,   9,  21,
   _,   _,   3,   _,   _,  20,   _,   _,  17,  14,   5,   _,   9,   8,   _,   _,   _,   _,   _,  21,   _,   _,   _,   _,   _,
  18,   _,   _,  19,   _,   _,  15,   _,   1,   _,   _,   _,   _,  13,   _,   _,   _,   _,   _,   9,   _,  12,   2,  23,   _,
  13,   _,   7,   _,   _,   2,   _,   _,   _,   _,   _,   _,   _,  10,   _,   _,   _,  22,   _,   _,   _,  19,   9,   _,   _,
   3,   _,   _,   _,   1,   _,  14,  20,   _,  18,   _,   _,   6,  19,  22,   _,   _,   _,  13,   _,   _,   _,   _,   5,   _,
  17,  15,  23,   _,   4,   _,   6,   _,   _,   _,   _,   1,  20,   _,   _,   _,   _,  24,  10,   8,  16,   _,   _,   _,   _,
  20,   _,   _,  24,  22,   _,   _,   _,   _,   _,   _,  15,   _,   _,   _,  17,   _,   6,  18,   _,   _,   _,   _,   _,   4
]);

n = 25;
